(set-info :smt-lib-version 2.6)
(set-logic QF_NIA)
(set-info :source |
Generated by: Cristina Borralleras, Daniel Larraz, Albert Oliveras, Enric Rodriguez-Carbonell, Albert Rubio
Generated on: 2017-04-27
Generator: VeryMax
Application: Termination proving
Target solver: barcelogic
|)
(set-info :license "https://creativecommons.org/licenses/by/4.0/")
(set-info :category "industrial")
(set-info :status unsat)
(declare-fun Nl3arg11 () Int)
(declare-fun Nl3arg21 () Int)
(declare-fun Nl3arg31 () Int)
(declare-fun Nl3arg41 () Int)
(declare-fun Nl3arg51 () Int)
(declare-fun lam0n0 () Int)
(declare-fun lam0n1 () Int)
(declare-fun lam0n2 () Int)
(declare-fun lam0n5 () Int)
(declare-fun lam0n4 () Int)
(declare-fun Nl3CT1 () Int)
(declare-fun lam0n3 () Int)
(declare-fun lam1n0 () Int)
(declare-fun lam1n1 () Int)
(declare-fun lam1n2 () Int)
(declare-fun lam1n5 () Int)
(declare-fun lam1n4 () Int)
(declare-fun lam1n3 () Int)
(declare-fun lam2n0 () Int)
(declare-fun lam2n1 () Int)
(declare-fun lam2n2 () Int)
(declare-fun lam2n3 () Int)
(declare-fun lam2n6 () Int)
(declare-fun lam2n4 () Int)
(declare-fun lam2n5 () Int)
(declare-fun lam3n0 () Int)
(declare-fun lam3n1 () Int)
(declare-fun lam3n2 () Int)
(declare-fun lam3n3 () Int)
(declare-fun lam3n6 () Int)
(declare-fun lam3n4 () Int)
(declare-fun lam3n5 () Int)
(declare-fun lam4n0 () Int)
(declare-fun lam4n1 () Int)
(declare-fun lam4n2 () Int)
(declare-fun lam4n3 () Int)
(declare-fun lam4n6 () Int)
(declare-fun lam4n4 () Int)
(declare-fun lam4n5 () Int)
(declare-fun lam5n0 () Int)
(declare-fun lam5n1 () Int)
(declare-fun lam5n2 () Int)
(declare-fun lam5n3 () Int)
(declare-fun lam5n6 () Int)
(declare-fun lam5n4 () Int)
(declare-fun lam5n5 () Int)
(declare-fun lam6n0 () Int)
(declare-fun lam6n1 () Int)
(declare-fun lam6n2 () Int)
(declare-fun lam6n3 () Int)
(declare-fun lam6n6 () Int)
(declare-fun lam6n4 () Int)
(declare-fun lam6n5 () Int)
(declare-fun lam7n0 () Int)
(declare-fun lam7n1 () Int)
(declare-fun lam7n2 () Int)
(declare-fun lam7n3 () Int)
(declare-fun lam7n6 () Int)
(declare-fun lam7n4 () Int)
(declare-fun lam7n5 () Int)
(declare-fun lam8n0 () Int)
(declare-fun lam8n1 () Int)
(declare-fun lam8n2 () Int)
(declare-fun lam8n5 () Int)
(declare-fun lam8n3 () Int)
(declare-fun lam8n4 () Int)
(declare-fun lam9n0 () Int)
(declare-fun lam9n1 () Int)
(declare-fun lam9n2 () Int)
(declare-fun lam9n5 () Int)
(declare-fun lam9n3 () Int)
(declare-fun lam9n4 () Int)
(declare-fun lam10n0 () Int)
(declare-fun lam10n1 () Int)
(declare-fun lam10n2 () Int)
(declare-fun lam10n3 () Int)
(declare-fun lam10n4 () Int)
(assert ( and ( <= ( - 1 ) Nl3arg11 ) ( <= Nl3arg11 1 ) ( <= ( - 1 ) Nl3arg21 ) ( <= Nl3arg21 1 ) ( <= ( - 1 ) Nl3arg31 ) ( <= Nl3arg31 1 ) ( <= ( - 1 ) Nl3arg41 ) ( <= Nl3arg41 1 ) ( <= ( - 1 ) Nl3arg51 ) ( <= Nl3arg51 1 ) ))
(assert ( or ( and ( >= lam0n0 0 ) ( >= lam0n1 0 ) ( >= lam0n2 0 ) ( >= lam0n5 0 ) ( > ( + ( * ( - 19 ) lam0n0 ) ( * ( - 18 ) lam0n1 ) ( * ( - 20 ) lam0n2 ) ( * ( - 1 ) lam0n4 ) ( * Nl3CT1 lam0n5 ) ( - 1 ) ) 0 ) ( = ( * Nl3arg11 lam0n5 ) 0 ) ( = ( + ( * 1 lam0n1 ) ( * Nl3arg21 lam0n5 ) ) 0 ) ( = ( + ( * 1 lam0n2 ) ( * 1 lam0n4 ) ( * Nl3arg31 lam0n5 ) ) 0 ) ( = ( + ( * 1 lam0n0 ) ( * 1 lam0n3 ) ( * Nl3arg41 lam0n5 ) ) 0 ) ( = ( + ( * 1 lam0n2 ) ( * ( - 1 ) lam0n3 ) ( * Nl3arg51 lam0n5 ) ) 0 ) ) ( and ( >= lam1n0 0 ) ( >= lam1n1 0 ) ( >= lam1n2 0 ) ( >= lam1n5 0 ) ( > ( + ( * ( - 19 ) lam1n0 ) ( * ( - 18 ) lam1n1 ) ( * ( - 20 ) lam1n2 ) ( * ( - 1 ) lam1n4 ) ( * Nl3CT1 lam1n5 ) ( - 1 ( + ( + ( + ( + Nl3CT1 ( * Nl3arg21 1 ) ) ( * Nl3arg31 0 ) ) ( * Nl3arg41 0 ) ) ( * Nl3arg51 0 ) ) ) ) 0 ) ( = ( + ( * Nl3arg11 lam1n5 ) ( - ( + 0 Nl3arg11 ) ) ) 0 ) ( = ( + ( * 1 lam1n1 ) ( * Nl3arg21 lam1n5 ) ( - ( + 0 ( * Nl3arg21 1 ) ) ) ) 0 ) ( = ( + ( * 1 lam1n2 ) ( * 1 lam1n4 ) ( * Nl3arg31 lam1n5 ) ) 0 ) ( = ( + ( * 1 lam1n0 ) ( * 1 lam1n3 ) ( * Nl3arg41 lam1n5 ) ) 0 ) ( = ( + ( * 1 lam1n2 ) ( * ( - 1 ) lam1n3 ) ( * Nl3arg51 lam1n5 ) ) 0 ) ) ))
(assert ( or ( and ( >= lam2n0 0 ) ( >= lam2n1 0 ) ( >= lam2n2 0 ) ( >= lam2n3 0 ) ( >= lam2n6 0 ) ( > ( + ( * 1 lam2n0 ) ( * ( - 19 ) lam2n1 ) ( * ( - 19 ) lam2n2 ) ( * ( - 20 ) lam2n3 ) ( * Nl3CT1 lam2n6 ) ( - 1 ) ) 0 ) ( = ( * Nl3arg11 lam2n6 ) 0 ) ( = ( + ( * 1 lam2n1 ) ( * Nl3arg21 lam2n6 ) ) 0 ) ( = ( + ( * 1 lam2n3 ) ( * 1 lam2n4 ) ( * Nl3arg31 lam2n6 ) ) 0 ) ( = ( + ( * 1 lam2n2 ) ( * 1 lam2n5 ) ( * Nl3arg41 lam2n6 ) ) 0 ) ( = ( + ( * 1 lam2n3 ) ( * ( - 1 ) lam2n5 ) ( * Nl3arg51 lam2n6 ) ) 0 ) ( = ( * ( - 1 ) lam2n0 ) 0 ) ( = ( * 1 lam2n0 ) 0 ) ) ( and ( >= lam3n0 0 ) ( >= lam3n1 0 ) ( >= lam3n2 0 ) ( >= lam3n3 0 ) ( >= lam3n6 0 ) ( > ( + ( * 1 lam3n0 ) ( * ( - 19 ) lam3n1 ) ( * ( - 19 ) lam3n2 ) ( * ( - 20 ) lam3n3 ) ( * Nl3CT1 lam3n6 ) ( - 1 ( + ( + ( + Nl3CT1 ( * Nl3arg31 0 ) ) ( * Nl3arg41 1 ) ) ( * Nl3arg51 1 ) ) ) ) 0 ) ( = ( + ( * Nl3arg11 lam3n6 ) ( - ( + 0 Nl3arg11 ) ) ) 0 ) ( = ( + ( * 1 lam3n1 ) ( * Nl3arg21 lam3n6 ) ( - ( + 0 Nl3arg21 ) ) ) 0 ) ( = ( + ( * 1 lam3n3 ) ( * 1 lam3n4 ) ( * Nl3arg31 lam3n6 ) ) 0 ) ( = ( + ( * 1 lam3n2 ) ( * 1 lam3n5 ) ( * Nl3arg41 lam3n6 ) ( - ( + ( + 0 ( * Nl3arg41 1 ) ) ( * Nl3arg51 1 ) ) ) ) 0 ) ( = ( + ( * 1 lam3n3 ) ( * ( - 1 ) lam3n5 ) ( * Nl3arg51 lam3n6 ) ) 0 ) ( = ( * ( - 1 ) lam3n0 ) 0 ) ( = ( * 1 lam3n0 ) 0 ) ) ))
(assert ( or ( and ( >= lam4n0 0 ) ( >= lam4n1 0 ) ( >= lam4n2 0 ) ( >= lam4n3 0 ) ( >= lam4n6 0 ) ( > ( + ( * 1 lam4n0 ) ( * ( - 19 ) lam4n1 ) ( * ( - 19 ) lam4n2 ) ( * ( - 20 ) lam4n3 ) ( * Nl3CT1 lam4n6 ) ( - 1 ) ) 0 ) ( = ( * Nl3arg11 lam4n6 ) 0 ) ( = ( + ( * 1 lam4n1 ) ( * Nl3arg21 lam4n6 ) ) 0 ) ( = ( + ( * 1 lam4n3 ) ( * 1 lam4n4 ) ( * Nl3arg31 lam4n6 ) ) 0 ) ( = ( + ( * 1 lam4n2 ) ( * 1 lam4n5 ) ( * Nl3arg41 lam4n6 ) ) 0 ) ( = ( + ( * 1 lam4n3 ) ( * ( - 1 ) lam4n5 ) ( * Nl3arg51 lam4n6 ) ) 0 ) ( = ( * 1 lam4n0 ) 0 ) ( = ( * ( - 1 ) lam4n0 ) 0 ) ) ( and ( >= lam5n0 0 ) ( >= lam5n1 0 ) ( >= lam5n2 0 ) ( >= lam5n3 0 ) ( >= lam5n6 0 ) ( > ( + ( * 1 lam5n0 ) ( * ( - 19 ) lam5n1 ) ( * ( - 19 ) lam5n2 ) ( * ( - 20 ) lam5n3 ) ( * Nl3CT1 lam5n6 ) ( - 1 ( + ( + ( + Nl3CT1 ( * Nl3arg31 0 ) ) ( * Nl3arg41 1 ) ) ( * Nl3arg51 1 ) ) ) ) 0 ) ( = ( + ( * Nl3arg11 lam5n6 ) ( - ( + 0 Nl3arg11 ) ) ) 0 ) ( = ( + ( * 1 lam5n1 ) ( * Nl3arg21 lam5n6 ) ( - ( + 0 Nl3arg21 ) ) ) 0 ) ( = ( + ( * 1 lam5n3 ) ( * 1 lam5n4 ) ( * Nl3arg31 lam5n6 ) ) 0 ) ( = ( + ( * 1 lam5n2 ) ( * 1 lam5n5 ) ( * Nl3arg41 lam5n6 ) ( - ( + ( + 0 ( * Nl3arg41 1 ) ) ( * Nl3arg51 1 ) ) ) ) 0 ) ( = ( + ( * 1 lam5n3 ) ( * ( - 1 ) lam5n5 ) ( * Nl3arg51 lam5n6 ) ) 0 ) ( = ( * 1 lam5n0 ) 0 ) ( = ( * ( - 1 ) lam5n0 ) 0 ) ) ))
(assert ( or ( and ( >= lam6n0 0 ) ( >= lam6n1 0 ) ( >= lam6n2 0 ) ( >= lam6n3 0 ) ( >= lam6n6 0 ) ( > ( + ( * 20 lam6n0 ) ( * ( - 19 ) lam6n1 ) ( * ( - 18 ) lam6n2 ) ( * ( - 20 ) lam6n3 ) ( * Nl3CT1 lam6n6 ) ( - 1 ) ) 0 ) ( = ( + ( * 1 lam6n1 ) ( * Nl3arg11 lam6n6 ) ) 0 ) ( = ( + ( * 1 lam6n2 ) ( * Nl3arg21 lam6n6 ) ) 0 ) ( = ( + ( * 1 lam6n3 ) ( * 1 lam6n4 ) ( * Nl3arg31 lam6n6 ) ) 0 ) ( = ( + ( * ( - 1 ) lam6n0 ) ( * 1 lam6n5 ) ( * Nl3arg41 lam6n6 ) ) 0 ) ( = ( + ( * 1 lam6n3 ) ( * ( - 1 ) lam6n5 ) ( * Nl3arg51 lam6n6 ) ) 0 ) ) ( and ( >= lam7n0 0 ) ( >= lam7n1 0 ) ( >= lam7n2 0 ) ( >= lam7n3 0 ) ( >= lam7n6 0 ) ( > ( + ( * 20 lam7n0 ) ( * ( - 19 ) lam7n1 ) ( * ( - 18 ) lam7n2 ) ( * ( - 20 ) lam7n3 ) ( * Nl3CT1 lam7n6 ) ( - 1 ( + ( + ( + ( + ( + Nl3CT1 ( * Nl3arg11 1 ) ) ( * Nl3arg21 1 ) ) ( * Nl3arg31 0 ) ) ( * Nl3arg41 0 ) ) ( * Nl3arg51 0 ) ) ) ) 0 ) ( = ( + ( * 1 lam7n1 ) ( * Nl3arg11 lam7n6 ) ( - ( + 0 ( * Nl3arg11 1 ) ) ) ) 0 ) ( = ( + ( * 1 lam7n2 ) ( * Nl3arg21 lam7n6 ) ( - ( + 0 ( * Nl3arg21 1 ) ) ) ) 0 ) ( = ( + ( * 1 lam7n3 ) ( * 1 lam7n4 ) ( * Nl3arg31 lam7n6 ) ) 0 ) ( = ( + ( * ( - 1 ) lam7n0 ) ( * 1 lam7n5 ) ( * Nl3arg41 lam7n6 ) ) 0 ) ( = ( + ( * 1 lam7n3 ) ( * ( - 1 ) lam7n5 ) ( * Nl3arg51 lam7n6 ) ) 0 ) ) ))
(assert ( or ( and ( >= lam8n0 0 ) ( >= lam8n1 0 ) ( >= lam8n2 0 ) ( >= lam8n5 0 ) ( > ( + ( * ( - 19 ) lam8n0 ) ( * ( - 19 ) lam8n1 ) ( * ( - 20 ) lam8n2 ) ( * Nl3CT1 lam8n5 ) ( - 1 ) ) 0 ) ( = ( * Nl3arg11 lam8n5 ) 0 ) ( = ( + ( * 1 lam8n0 ) ( * Nl3arg21 lam8n5 ) ) 0 ) ( = ( + ( * 1 lam8n2 ) ( * 1 lam8n3 ) ( * Nl3arg31 lam8n5 ) ) 0 ) ( = ( + ( * 1 lam8n1 ) ( * 1 lam8n4 ) ( * Nl3arg41 lam8n5 ) ) 0 ) ( = ( + ( * 1 lam8n2 ) ( * ( - 1 ) lam8n4 ) ( * Nl3arg51 lam8n5 ) ) 0 ) ) ( and ( >= lam9n0 0 ) ( >= lam9n1 0 ) ( >= lam9n2 0 ) ( >= lam9n5 0 ) ( > ( + ( * ( - 19 ) lam9n0 ) ( * ( - 19 ) lam9n1 ) ( * ( - 20 ) lam9n2 ) ( * Nl3CT1 lam9n5 ) ( - 1 ( + ( + Nl3CT1 ( * Nl3arg31 1 ) ) ( * Nl3arg51 0 ) ) ) ) 0 ) ( = ( + ( * Nl3arg11 lam9n5 ) ( - ( + 0 Nl3arg11 ) ) ) 0 ) ( = ( + ( * 1 lam9n0 ) ( * Nl3arg21 lam9n5 ) ( - ( + 0 Nl3arg21 ) ) ) 0 ) ( = ( + ( * 1 lam9n2 ) ( * 1 lam9n3 ) ( * Nl3arg31 lam9n5 ) ) 0 ) ( = ( + ( * 1 lam9n1 ) ( * 1 lam9n4 ) ( * Nl3arg41 lam9n5 ) ( - ( + ( + 0 Nl3arg41 ) ( * Nl3arg51 1 ) ) ) ) 0 ) ( = ( + ( * 1 lam9n2 ) ( * ( - 1 ) lam9n4 ) ( * Nl3arg51 lam9n5 ) ) 0 ) ) ))
(assert ( and ( > ( - 1 Nl3CT1 ) 0 ) ( = ( + ( * 1 lam10n0 ) ( - ( + 0 Nl3arg11 ) ) ) 0 ) ( = ( + ( * 1 lam10n1 ) ( - ( + 0 Nl3arg21 ) ) ) 0 ) ( = ( + ( * 1 lam10n2 ) ( - ( + 0 Nl3arg31 ) ) ) 0 ) ( = ( + ( * 1 lam10n3 ) ( - ( + 0 Nl3arg41 ) ) ) 0 ) ( = ( + ( * 1 lam10n4 ) ( - ( + 0 Nl3arg51 ) ) ) 0 ) ))
(assert ( or ( and ( >= lam0n0 0 ) ( >= lam0n1 0 ) ( >= lam0n2 0 ) ( >= lam0n5 0 ) ( > ( + ( * ( - 19 ) lam0n0 ) ( * ( - 18 ) lam0n1 ) ( * ( - 20 ) lam0n2 ) ( * ( - 1 ) lam0n4 ) ( * Nl3CT1 lam0n5 ) ( - 1 ) ) 0 ) ( = ( * Nl3arg11 lam0n5 ) 0 ) ( = ( + ( * 1 lam0n1 ) ( * Nl3arg21 lam0n5 ) ) 0 ) ( = ( + ( * 1 lam0n2 ) ( * 1 lam0n4 ) ( * Nl3arg31 lam0n5 ) ) 0 ) ( = ( + ( * 1 lam0n0 ) ( * 1 lam0n3 ) ( * Nl3arg41 lam0n5 ) ) 0 ) ( = ( + ( * 1 lam0n2 ) ( * ( - 1 ) lam0n3 ) ( * Nl3arg51 lam0n5 ) ) 0 ) ) ( and ( >= lam2n0 0 ) ( >= lam2n1 0 ) ( >= lam2n2 0 ) ( >= lam2n3 0 ) ( >= lam2n6 0 ) ( > ( + ( * 1 lam2n0 ) ( * ( - 19 ) lam2n1 ) ( * ( - 19 ) lam2n2 ) ( * ( - 20 ) lam2n3 ) ( * Nl3CT1 lam2n6 ) ( - 1 ) ) 0 ) ( = ( * Nl3arg11 lam2n6 ) 0 ) ( = ( + ( * 1 lam2n1 ) ( * Nl3arg21 lam2n6 ) ) 0 ) ( = ( + ( * 1 lam2n3 ) ( * 1 lam2n4 ) ( * Nl3arg31 lam2n6 ) ) 0 ) ( = ( + ( * 1 lam2n2 ) ( * 1 lam2n5 ) ( * Nl3arg41 lam2n6 ) ) 0 ) ( = ( + ( * 1 lam2n3 ) ( * ( - 1 ) lam2n5 ) ( * Nl3arg51 lam2n6 ) ) 0 ) ( = ( * ( - 1 ) lam2n0 ) 0 ) ( = ( * 1 lam2n0 ) 0 ) ) ( and ( >= lam4n0 0 ) ( >= lam4n1 0 ) ( >= lam4n2 0 ) ( >= lam4n3 0 ) ( >= lam4n6 0 ) ( > ( + ( * 1 lam4n0 ) ( * ( - 19 ) lam4n1 ) ( * ( - 19 ) lam4n2 ) ( * ( - 20 ) lam4n3 ) ( * Nl3CT1 lam4n6 ) ( - 1 ) ) 0 ) ( = ( * Nl3arg11 lam4n6 ) 0 ) ( = ( + ( * 1 lam4n1 ) ( * Nl3arg21 lam4n6 ) ) 0 ) ( = ( + ( * 1 lam4n3 ) ( * 1 lam4n4 ) ( * Nl3arg31 lam4n6 ) ) 0 ) ( = ( + ( * 1 lam4n2 ) ( * 1 lam4n5 ) ( * Nl3arg41 lam4n6 ) ) 0 ) ( = ( + ( * 1 lam4n3 ) ( * ( - 1 ) lam4n5 ) ( * Nl3arg51 lam4n6 ) ) 0 ) ( = ( * 1 lam4n0 ) 0 ) ( = ( * ( - 1 ) lam4n0 ) 0 ) ) ( and ( >= lam6n0 0 ) ( >= lam6n1 0 ) ( >= lam6n2 0 ) ( >= lam6n3 0 ) ( >= lam6n6 0 ) ( > ( + ( * 20 lam6n0 ) ( * ( - 19 ) lam6n1 ) ( * ( - 18 ) lam6n2 ) ( * ( - 20 ) lam6n3 ) ( * Nl3CT1 lam6n6 ) ( - 1 ) ) 0 ) ( = ( + ( * 1 lam6n1 ) ( * Nl3arg11 lam6n6 ) ) 0 ) ( = ( + ( * 1 lam6n2 ) ( * Nl3arg21 lam6n6 ) ) 0 ) ( = ( + ( * 1 lam6n3 ) ( * 1 lam6n4 ) ( * Nl3arg31 lam6n6 ) ) 0 ) ( = ( + ( * ( - 1 ) lam6n0 ) ( * 1 lam6n5 ) ( * Nl3arg41 lam6n6 ) ) 0 ) ( = ( + ( * 1 lam6n3 ) ( * ( - 1 ) lam6n5 ) ( * Nl3arg51 lam6n6 ) ) 0 ) ) ( and ( >= lam8n0 0 ) ( >= lam8n1 0 ) ( >= lam8n2 0 ) ( >= lam8n5 0 ) ( > ( + ( * ( - 19 ) lam8n0 ) ( * ( - 19 ) lam8n1 ) ( * ( - 20 ) lam8n2 ) ( * Nl3CT1 lam8n5 ) ( - 1 ) ) 0 ) ( = ( * Nl3arg11 lam8n5 ) 0 ) ( = ( + ( * 1 lam8n0 ) ( * Nl3arg21 lam8n5 ) ) 0 ) ( = ( + ( * 1 lam8n2 ) ( * 1 lam8n3 ) ( * Nl3arg31 lam8n5 ) ) 0 ) ( = ( + ( * 1 lam8n1 ) ( * 1 lam8n4 ) ( * Nl3arg41 lam8n5 ) ) 0 ) ( = ( + ( * 1 lam8n2 ) ( * ( - 1 ) lam8n4 ) ( * Nl3arg51 lam8n5 ) ) 0 ) ) ))
(check-sat)
(exit)
